Problem:    vrptw
Rows:       148
Columns:    147 (126 integer, 126 binary)
Non-zeros:  921
Status:     INTEGER OPTIMAL
Objective:  Distance = 715 (MINimum)

   No.   Row name        Activity     Lower bound   Upper bound
------ ------------    ------------- ------------- -------------
     1 ServeAllOnlyOnce[1]
                                   1             1             = 
     2 ServeAllOnlyOnce[2]
                                   1             1             = 
     3 ServeAllOnlyOnce[3]
                                   1             1             = 
     4 ServeAllOnlyOnce[4]
                                   1             1             = 
     5 ServeAllOnlyOnce[5]
                                   1             1             = 
     6 ServeAllOnlyOnce[6]
                                   1             1             = 
     7 LeaveDepot[1]
                                   1                           1 
     8 LeaveDepot[2]
                                   1                           1 
     9 LeaveDepot[3]
                                   1                           1 
    10 ArriveAtDepot[1]
                                   1                           1 
    11 ArriveAtDepot[2]
                                   1                           1 
    12 ArriveAtDepot[3]
                                   1                           1 
    13 EnsureFlow[1,1]
                                   0            -0             = 
    14 EnsureFlow[1,2]
                                   0            -0             = 
    15 EnsureFlow[1,3]
                                   0            -0             = 
    16 EnsureFlow[2,1]
                                   0            -0             = 
    17 EnsureFlow[2,2]
                                   0            -0             = 
    18 EnsureFlow[2,3]
                                   0            -0             = 
    19 EnsureFlow[3,1]
                                   0            -0             = 
    20 EnsureFlow[3,2]
                                   0            -0             = 
    21 EnsureFlow[3,3]
                                   0            -0             = 
    22 EnsureFlow[4,1]
                                   0            -0             = 
    23 EnsureFlow[4,2]
                                   0            -0             = 
    24 EnsureFlow[4,3]
                                   0            -0             = 
    25 EnsureFlow[5,1]
                                   0            -0             = 
    26 EnsureFlow[5,2]
                                   0            -0             = 
    27 EnsureFlow[5,3]
                                   0            -0             = 
    28 EnsureFlow[6,1]
                                   0            -0             = 
    29 EnsureFlow[6,2]
                                   0            -0             = 
    30 EnsureFlow[6,3]
                                   0            -0             = 
    31 EnsureFlow[0,1]
                                   0            -0             = 
    32 EnsureFlow[0,2]
                                   0            -0             = 
    33 EnsureFlow[0,3]
                                   0            -0             = 
    34 CapacityConstraint[1]
                                  25                          40 
    35 CapacityConstraint[2]
                                  50                          50 
    36 CapacityConstraint[3]
                                  90                         100 
    37 CalcElapsedTimeWHenRouteTaken[1,1,2]
                                 -60                       99859 
    38 CalcElapsedTimeWHenRouteTaken[1,1,3]
                                 -50                       99839 
    39 CalcElapsedTimeWHenRouteTaken[1,1,4]
                                 -80                       99894 
    40 CalcElapsedTimeWHenRouteTaken[1,1,5]
                                -180                       99879 
    41 CalcElapsedTimeWHenRouteTaken[1,1,6]
                                -115                       99899 
    42 CalcElapsedTimeWHenRouteTaken[1,2,1]
                                  60                       99863 
    43 CalcElapsedTimeWHenRouteTaken[1,2,3]
                                  10                       99828 
    44 CalcElapsedTimeWHenRouteTaken[1,2,4]
                                 -20                       99908 
    45 CalcElapsedTimeWHenRouteTaken[1,2,5]
                                -120                       99848 
    46 CalcElapsedTimeWHenRouteTaken[1,2,6]
                                 -55                       99878 
    47 CalcElapsedTimeWHenRouteTaken[1,3,1]
                                  50                       99842 
    48 CalcElapsedTimeWHenRouteTaken[1,3,2]
                                 -10                       99827 
    49 CalcElapsedTimeWHenRouteTaken[1,3,4]
                                 -30                       99927 
    50 CalcElapsedTimeWHenRouteTaken[1,3,5]
                                -130                       99947 
    51 CalcElapsedTimeWHenRouteTaken[1,3,6]
                                 -65                       99957 
    52 CalcElapsedTimeWHenRouteTaken[1,4,1]
                                  80                       99896 
    53 CalcElapsedTimeWHenRouteTaken[1,4,2]
                                  20                       99906 
    54 CalcElapsedTimeWHenRouteTaken[1,4,3]
                                  30                       99926 
    55 CalcElapsedTimeWHenRouteTaken[1,4,5]
                                -100                       99931 
    56 CalcElapsedTimeWHenRouteTaken[1,4,6]
                                 -35                       99966 
    57 CalcElapsedTimeWHenRouteTaken[1,5,1]
                                 180                       99885 
    58 CalcElapsedTimeWHenRouteTaken[1,5,2]
                                 120                       99850 
    59 CalcElapsedTimeWHenRouteTaken[1,5,3]
                                 130                       99950 
    60 CalcElapsedTimeWHenRouteTaken[1,5,4]
                                 100                       99935 
    61 CalcElapsedTimeWHenRouteTaken[1,5,6]
                                  65                       99870 
    62 CalcElapsedTimeWHenRouteTaken[1,6,1]
                                 115                       99906 
    63 CalcElapsedTimeWHenRouteTaken[1,6,2]
                                  55                       99881 
    64 CalcElapsedTimeWHenRouteTaken[1,6,3]
                                  65                       99961 
    65 CalcElapsedTimeWHenRouteTaken[1,6,4]
                                  35                       99971 
    66 CalcElapsedTimeWHenRouteTaken[1,6,5]
                                 -65                       99871 
    67 CalcElapsedTimeWHenRouteTaken[2,1,2]
                                 -60                       99859 
    68 CalcElapsedTimeWHenRouteTaken[2,1,3]
                                 -50                       99839 
    69 CalcElapsedTimeWHenRouteTaken[2,1,4]
                                 -80                       99894 
    70 CalcElapsedTimeWHenRouteTaken[2,1,5]
                                -180                       99879 
    71 CalcElapsedTimeWHenRouteTaken[2,1,6]
                                -115                       99899 
    72 CalcElapsedTimeWHenRouteTaken[2,2,1]
                                  60                       99863 
    73 CalcElapsedTimeWHenRouteTaken[2,2,3]
                                  10                       99828 
    74 CalcElapsedTimeWHenRouteTaken[2,2,4]
                                 -20                       99908 
    75 CalcElapsedTimeWHenRouteTaken[2,2,5]
                                -120                       99848 
    76 CalcElapsedTimeWHenRouteTaken[2,2,6]
                                 -55                       99878 
    77 CalcElapsedTimeWHenRouteTaken[2,3,1]
                                  50                       99842 
    78 CalcElapsedTimeWHenRouteTaken[2,3,2]
                                 -10                       99827 
    79 CalcElapsedTimeWHenRouteTaken[2,3,4]
                                 -30                       99927 
    80 CalcElapsedTimeWHenRouteTaken[2,3,5]
                               99869                       99947 
    81 CalcElapsedTimeWHenRouteTaken[2,3,6]
                                 -65                       99957 
    82 CalcElapsedTimeWHenRouteTaken[2,4,1]
                                  80                       99896 
    83 CalcElapsedTimeWHenRouteTaken[2,4,2]
                                  20                       99906 
    84 CalcElapsedTimeWHenRouteTaken[2,4,3]
                                  30                       99926 
    85 CalcElapsedTimeWHenRouteTaken[2,4,5]
                                -100                       99931 
    86 CalcElapsedTimeWHenRouteTaken[2,4,6]
                                 -35                       99966 
    87 CalcElapsedTimeWHenRouteTaken[2,5,1]
                                 180                       99885 
    88 CalcElapsedTimeWHenRouteTaken[2,5,2]
                                 120                       99850 
    89 CalcElapsedTimeWHenRouteTaken[2,5,3]
                                 130                       99950 
    90 CalcElapsedTimeWHenRouteTaken[2,5,4]
                                 100                       99935 
    91 CalcElapsedTimeWHenRouteTaken[2,5,6]
                                  65                       99870 
    92 CalcElapsedTimeWHenRouteTaken[2,6,1]
                                 115                       99906 
    93 CalcElapsedTimeWHenRouteTaken[2,6,2]
                                  55                       99881 
    94 CalcElapsedTimeWHenRouteTaken[2,6,3]
                                  65                       99961 
    95 CalcElapsedTimeWHenRouteTaken[2,6,4]
                                  35                       99971 
    96 CalcElapsedTimeWHenRouteTaken[2,6,5]
                                 -65                       99871 
    97 CalcElapsedTimeWHenRouteTaken[3,1,2]
                                 -60                       99859 
    98 CalcElapsedTimeWHenRouteTaken[3,1,3]
                                 -50                       99839 
    99 CalcElapsedTimeWHenRouteTaken[3,1,4]
                               99894                       99894 
   100 CalcElapsedTimeWHenRouteTaken[3,1,5]
                                -180                       99879 
   101 CalcElapsedTimeWHenRouteTaken[3,1,6]
                                -138                       99899 
   102 CalcElapsedTimeWHenRouteTaken[3,2,1]
                                  60                       99863 
   103 CalcElapsedTimeWHenRouteTaken[3,2,3]
                                  10                       99828 
   104 CalcElapsedTimeWHenRouteTaken[3,2,4]
                                 -45                       99908 
   105 CalcElapsedTimeWHenRouteTaken[3,2,5]
                                -120                       99848 
   106 CalcElapsedTimeWHenRouteTaken[3,2,6]
                                 -78                       99878 
   107 CalcElapsedTimeWHenRouteTaken[3,3,1]
                                  50                       99842 
   108 CalcElapsedTimeWHenRouteTaken[3,3,2]
                                 -10                       99827 
   109 CalcElapsedTimeWHenRouteTaken[3,3,4]
                                 -55                       99927 
   110 CalcElapsedTimeWHenRouteTaken[3,3,5]
                                -130                       99947 
   111 CalcElapsedTimeWHenRouteTaken[3,3,6]
                                 -88                       99957 
   112 CalcElapsedTimeWHenRouteTaken[3,4,1]
                                 105                       99896 
   113 CalcElapsedTimeWHenRouteTaken[3,4,2]
                                  45                       99906 
   114 CalcElapsedTimeWHenRouteTaken[3,4,3]
                                  55                       99926 
   115 CalcElapsedTimeWHenRouteTaken[3,4,5]
                                 -75                       99931 
   116 CalcElapsedTimeWHenRouteTaken[3,4,6]
                               99966                       99966 
   117 CalcElapsedTimeWHenRouteTaken[3,5,1]
                                 180                       99885 
   118 CalcElapsedTimeWHenRouteTaken[3,5,2]
                                 120                       99850 
   119 CalcElapsedTimeWHenRouteTaken[3,5,3]
                                 130                       99950 
   120 CalcElapsedTimeWHenRouteTaken[3,5,4]
                                  75                       99935 
   121 CalcElapsedTimeWHenRouteTaken[3,5,6]
                                  42                       99870 
   122 CalcElapsedTimeWHenRouteTaken[3,6,1]
                                 138                       99906 
   123 CalcElapsedTimeWHenRouteTaken[3,6,2]
                                  78                       99881 
   124 CalcElapsedTimeWHenRouteTaken[3,6,3]
                                  88                       99961 
   125 CalcElapsedTimeWHenRouteTaken[3,6,4]
                                  33                       99971 
   126 CalcElapsedTimeWHenRouteTaken[3,6,5]
                                 -42                       99871 
   127 TimeWindows[1,1]
                                  20            20           100 
   128 TimeWindows[1,2]
                                  80            80           110 
   129 TimeWindows[1,3]
                                  70            70            90 
   130 TimeWindows[1,4]
                                 100           100           150 
   131 TimeWindows[1,5]
                                 200           200           250 
   132 TimeWindows[1,6]
                                 135           135           165 
   133 TimeWindows[1,0]
                                   0             0            40 
   134 TimeWindows[2,1]
                                  20            20           100 
   135 TimeWindows[2,2]
                                  80            80           110 
   136 TimeWindows[2,3]
                                  70            70            90 
   137 TimeWindows[2,4]
                                 100           100           150 
   138 TimeWindows[2,5]
                                 200           200           250 
   139 TimeWindows[2,6]
                                 135           135           165 
   140 TimeWindows[2,0]
                                   0             0            40 
   141 TimeWindows[3,1]
                                  20            20           100 
   142 TimeWindows[3,2]
                                  80            80           110 
   143 TimeWindows[3,3]
                                  70            70            90 
   144 TimeWindows[3,4]
                                 125           100           150 
   145 TimeWindows[3,5]
                                 200           200           250 
   146 TimeWindows[3,6]
                                 158           135           165 
   147 TimeWindows[3,0]
                                   0             0            40 
   148 Distance                  715                             

   No. Column name       Activity     Lower bound   Upper bound
------ ------------    ------------- ------------- -------------
     1 takeRoute[1,1,2]
                    *              0             0             1 
     2 takeRoute[1,1,3]
                    *              0             0             1 
     3 takeRoute[1,1,4]
                    *              0             0             1 
     4 takeRoute[1,1,5]
                    *              0             0             1 
     5 takeRoute[1,1,6]
                    *              0             0             1 
     6 takeRoute[1,1,0]
                    *              0             0             1 
     7 takeRoute[2,1,2]
                    *              0             0             1 
     8 takeRoute[2,1,3]
                    *              0             0             1 
     9 takeRoute[2,1,4]
                    *              0             0             1 
    10 takeRoute[2,1,5]
                    *              0             0             1 
    11 takeRoute[2,1,6]
                    *              0             0             1 
    12 takeRoute[2,1,0]
                    *              0             0             1 
    13 takeRoute[3,1,2]
                    *              0             0             1 
    14 takeRoute[3,1,3]
                    *              0             0             1 
    15 takeRoute[3,1,4]
                    *              1             0             1 
    16 takeRoute[3,1,5]
                    *              0             0             1 
    17 takeRoute[3,1,6]
                    *              0             0             1 
    18 takeRoute[3,1,0]
                    *              0             0             1 
    19 takeRoute[1,2,1]
                    *              0             0             1 
    20 takeRoute[1,2,3]
                    *              0             0             1 
    21 takeRoute[1,2,4]
                    *              0             0             1 
    22 takeRoute[1,2,5]
                    *              0             0             1 
    23 takeRoute[1,2,6]
                    *              0             0             1 
    24 takeRoute[1,2,0]
                    *              1             0             1 
    25 takeRoute[2,2,1]
                    *              0             0             1 
    26 takeRoute[2,2,3]
                    *              0             0             1 
    27 takeRoute[2,2,4]
                    *              0             0             1 
    28 takeRoute[2,2,5]
                    *              0             0             1 
    29 takeRoute[2,2,6]
                    *              0             0             1 
    30 takeRoute[2,2,0]
                    *              0             0             1 
    31 takeRoute[3,2,1]
                    *              0             0             1 
    32 takeRoute[3,2,3]
                    *              0             0             1 
    33 takeRoute[3,2,4]
                    *              0             0             1 
    34 takeRoute[3,2,5]
                    *              0             0             1 
    35 takeRoute[3,2,6]
                    *              0             0             1 
    36 takeRoute[3,2,0]
                    *              0             0             1 
    37 takeRoute[1,3,1]
                    *              0             0             1 
    38 takeRoute[1,3,2]
                    *              0             0             1 
    39 takeRoute[1,3,4]
                    *              0             0             1 
    40 takeRoute[1,3,5]
                    *              0             0             1 
    41 takeRoute[1,3,6]
                    *              0             0             1 
    42 takeRoute[1,3,0]
                    *              0             0             1 
    43 takeRoute[2,3,1]
                    *              0             0             1 
    44 takeRoute[2,3,2]
                    *              0             0             1 
    45 takeRoute[2,3,4]
                    *              0             0             1 
    46 takeRoute[2,3,5]
                    *              1             0             1 
    47 takeRoute[2,3,6]
                    *              0             0             1 
    48 takeRoute[2,3,0]
                    *              0             0             1 
    49 takeRoute[3,3,1]
                    *              0             0             1 
    50 takeRoute[3,3,2]
                    *              0             0             1 
    51 takeRoute[3,3,4]
                    *              0             0             1 
    52 takeRoute[3,3,5]
                    *              0             0             1 
    53 takeRoute[3,3,6]
                    *              0             0             1 
    54 takeRoute[3,3,0]
                    *              0             0             1 
    55 takeRoute[1,4,1]
                    *              0             0             1 
    56 takeRoute[1,4,2]
                    *              0             0             1 
    57 takeRoute[1,4,3]
                    *              0             0             1 
    58 takeRoute[1,4,5]
                    *              0             0             1 
    59 takeRoute[1,4,6]
                    *              0             0             1 
    60 takeRoute[1,4,0]
                    *              0             0             1 
    61 takeRoute[2,4,1]
                    *              0             0             1 
    62 takeRoute[2,4,2]
                    *              0             0             1 
    63 takeRoute[2,4,3]
                    *              0             0             1 
    64 takeRoute[2,4,5]
                    *              0             0             1 
    65 takeRoute[2,4,6]
                    *              0             0             1 
    66 takeRoute[2,4,0]
                    *              0             0             1 
    67 takeRoute[3,4,1]
                    *              0             0             1 
    68 takeRoute[3,4,2]
                    *              0             0             1 
    69 takeRoute[3,4,3]
                    *              0             0             1 
    70 takeRoute[3,4,5]
                    *              0             0             1 
    71 takeRoute[3,4,6]
                    *              1             0             1 
    72 takeRoute[3,4,0]
                    *              0             0             1 
    73 takeRoute[1,5,1]
                    *              0             0             1 
    74 takeRoute[1,5,2]
                    *              0             0             1 
    75 takeRoute[1,5,3]
                    *              0             0             1 
    76 takeRoute[1,5,4]
                    *              0             0             1 
    77 takeRoute[1,5,6]
                    *              0             0             1 
    78 takeRoute[1,5,0]
                    *              0             0             1 
    79 takeRoute[2,5,1]
                    *              0             0             1 
    80 takeRoute[2,5,2]
                    *              0             0             1 
    81 takeRoute[2,5,3]
                    *              0             0             1 
    82 takeRoute[2,5,4]
                    *              0             0             1 
    83 takeRoute[2,5,6]
                    *              0             0             1 
    84 takeRoute[2,5,0]
                    *              1             0             1 
    85 takeRoute[3,5,1]
                    *              0             0             1 
    86 takeRoute[3,5,2]
                    *              0             0             1 
    87 takeRoute[3,5,3]
                    *              0             0             1 
    88 takeRoute[3,5,4]
                    *              0             0             1 
    89 takeRoute[3,5,6]
                    *              0             0             1 
    90 takeRoute[3,5,0]
                    *              0             0             1 
    91 takeRoute[1,6,1]
                    *              0             0             1 
    92 takeRoute[1,6,2]
                    *              0             0             1 
    93 takeRoute[1,6,3]
                    *              0             0             1 
    94 takeRoute[1,6,4]
                    *              0             0             1 
    95 takeRoute[1,6,5]
                    *              0             0             1 
    96 takeRoute[1,6,0]
                    *              0             0             1 
    97 takeRoute[2,6,1]
                    *              0             0             1 
    98 takeRoute[2,6,2]
                    *              0             0             1 
    99 takeRoute[2,6,3]
                    *              0             0             1 
   100 takeRoute[2,6,4]
                    *              0             0             1 
   101 takeRoute[2,6,5]
                    *              0             0             1 
   102 takeRoute[2,6,0]
                    *              0             0             1 
   103 takeRoute[3,6,1]
                    *              0             0             1 
   104 takeRoute[3,6,2]
                    *              0             0             1 
   105 takeRoute[3,6,3]
                    *              0             0             1 
   106 takeRoute[3,6,4]
                    *              0             0             1 
   107 takeRoute[3,6,5]
                    *              0             0             1 
   108 takeRoute[3,6,0]
                    *              1             0             1 
   109 takeRoute[1,0,1]
                    *              0             0             1 
   110 takeRoute[1,0,2]
                    *              1             0             1 
   111 takeRoute[1,0,3]
                    *              0             0             1 
   112 takeRoute[1,0,4]
                    *              0             0             1 
   113 takeRoute[1,0,5]
                    *              0             0             1 
   114 takeRoute[1,0,6]
                    *              0             0             1 
   115 takeRoute[2,0,1]
                    *              0             0             1 
   116 takeRoute[2,0,2]
                    *              0             0             1 
   117 takeRoute[2,0,3]
                    *              1             0             1 
   118 takeRoute[2,0,4]
                    *              0             0             1 
   119 takeRoute[2,0,5]
                    *              0             0             1 
   120 takeRoute[2,0,6]
                    *              0             0             1 
   121 takeRoute[3,0,1]
                    *              1             0             1 
   122 takeRoute[3,0,2]
                    *              0             0             1 
   123 takeRoute[3,0,3]
                    *              0             0             1 
   124 takeRoute[3,0,4]
                    *              0             0             1 
   125 takeRoute[3,0,5]
                    *              0             0             1 
   126 takeRoute[3,0,6]
                    *              0             0             1 
   127 start_service[1,2]
                                  80             0               
   128 start_service[1,1]
                                  20             0               
   129 start_service[1,3]
                                  70             0               
   130 start_service[1,4]
                                 100             0               
   131 start_service[1,5]
                                 200             0               
   132 start_service[1,6]
                                 135             0               
   133 start_service[2,2]
                                  80             0               
   134 start_service[2,1]
                                  20             0               
   135 start_service[2,3]
                                  70             0               
   136 start_service[2,4]
                                 100             0               
   137 start_service[2,5]
                                 200             0               
   138 start_service[2,6]
                                 135             0               
   139 start_service[3,2]
                                  80             0               
   140 start_service[3,1]
                                  20             0               
   141 start_service[3,3]
                                  70             0               
   142 start_service[3,4]
                                 125             0               
   143 start_service[3,5]
                                 200             0               
   144 start_service[3,6]
                                 158             0               
   145 start_service[1,0]
                                   0             0               
   146 start_service[2,0]
                                   0             0               
   147 start_service[3,0]
                                   0             0               

Integer feasibility conditions:

KKT.PE: max.abs.err = 0.00e+00 on row 0
        max.rel.err = 0.00e+00 on row 0
        High quality

KKT.PB: max.abs.err = 0.00e+00 on row 0
        max.rel.err = 0.00e+00 on row 0
        High quality

End of output
